10 12
10 5
21 49
33 41
29 3
44 10
47 0
12 36
17 36
0 44
36 38
34 45
32 48
48 30
36 18
38 28
32 16
41 42
36 41
45 41
25 15
9 16
26 33
25 10
46 22
48 21
41 30
5 47
36 4
2 25
17 36
28 37
32 46
18 41
43 36
18 42
42 13
37 47
32 48
3 25
